c A SAT instance generated from a 3-CNF formula that had 12 clauses and 6 variables
p cnf 6 12
6 -3 -5 0
3 6 -4 0
-3 -5 6 0
1 5 -4 0
-6 -5 4 0
-3 -2 -4 0
-1 4 6 0
2 -3 5 0
6 4 1 0
2 -5 -4 0
-3 5 1 0
-6 4 -3 0
